100
32
27
18
27
9
4
9
12
20
12
12
28
28
8
27
14
18
17
28
9
1
30
8
26
17
12
31
9
25
2
25
8
1
17
2
2
5
3
5
2
2
2
2
2
1
3
5
30
3
1
17
2
4
3
1
20
5
21
2
2
2
7
4
2
3
18
6
2
1
16
1
18
6
4
10
9
1
4
2
2
3
18
2
9
3
3
3
2
2
3
1
20
4
1
17
1
1
4
1
1
3